unsat
(:added-eqs                       9486
 :arith-eq-adapter                209
 :arith-bound-propagations-lp     327
 :arith-branch                    1
 :arith-conflicts                 982
 :arith-cube-calls                1
 :arith-diseq                     3617
 :arith-fixed-eqs                 1211
 :arith-gcd-calls                 19
 :arith-gomory-cuts               1
 :arith-grobner-calls             315
 :arith-grobner-conflicts         8
 :arith-hnf-calls                 1
 :arith-horner-calls              184
 :arith-horner-cross-nested-forms 1514
 :arith-lower                     4893
 :arith-make-feasible             4701
 :arith-max-columns               114
 :arith-max-rows                  52
 :arith-nla-add-bounds            62
 :arith-nla-lemmas                741
 :arith-nla-propagate-bounds      122
 :arith-nla-propagate-eq          2842
 :arith-nra-calls                 628
 :arith-offset-eqs                1133
 :arith-patches                   19
 :arith-patches-success           17
 :arith-upper                     6991
 :binary-propagations             23427
 :cnf-encoding-aux-vars           1
 :conflicts                       908
 :decisions                       21408
 :del-clause                      466
 :elim-unconstrained              16
 :final-checks                    884
 :max-memory                      43.84
 :memory                          30.33
 :minimized-lits                  2757
 :mk-bool-var                     1170
 :mk-clause                       1550
 :mk-clause-binary                486
 :nlsat-conflicts                 42894
 :nlsat-decisions                 3290
 :nlsat-irrational-assignments    2
 :nlsat-propagations              432640
 :nlsat-restarts                  10
 :nlsat-stages                    143286
 :num-allocs                      2698269851
 :num-checks                      1
 :propagations                    38221
 :restarts                        8
 :rlimit-count                    6855677
 :sat-backjumps                   501
 :sat-conflicts                   501
 :sat-decisions                   1181
 :sat-del-clause                  14791
 :sat-elim-bool-vars-res          2604
 :sat-elim-clauses                560
 :sat-elim-literals               661
 :sat-minimized-lits              1134
 :sat-mk-clause-2ary              8784
 :sat-mk-clause-3ary              3764
 :sat-mk-clause-nary              22179
 :sat-mk-var                      5509
 :sat-probing-assigned            79
 :sat-propagations-2ary           74235
 :sat-propagations-nary           82030
 :sat-restarts                    22
 :sat-scc-elim-binary             61
 :sat-scc-elim-vars               60
 :sat-subs-resolution             248
 :sat-subs-resolution-dyn         85
 :sat-subsumed                    2737
 :sat-units                       165
 :solve-eqs-elim-vars             20
 :solve-eqs-steps                 111
 :time                            2.19
 :total-time                      2.20)
